(set-info :Origin "This instance was generated by: BanditFuzz-- an RL fuzzer for SMT solvers" )
(set-info :Author "Joe Scott, Fed Mora, Vijay Ganesh" )
(set-info :Contact "Joe Scott, joseph.scott@uwaterloo.ca")
(set-logic QF_BV)
(declare-const bool_0 Bool)
(declare-const bool_1 Bool)
(declare-const bool_2 Bool)
(declare-const bool_3 Bool)
(declare-const bool_4 Bool)
(declare-const bv_0 (_ BitVec 32))
(declare-const bv_1 (_ BitVec 32))
(declare-const bv_2 (_ BitVec 32))
(declare-const bv_3 (_ BitVec 32))
(declare-const bv_4 (_ BitVec 32))
(assert (bvugt (bvlshr (bvor #x447b06bc  #x2332c008 ) (bvlshr #xd1386250  #x2700d0d8 )) (bvnand (bvmul bv_1 #x54b10ab6 ) (bvsdiv bv_0 bv_0))))
(assert (or (or (bvsle #x54ba6e47  bv_1) (and false bool_1)) (bvsgt (bvnand #x13f195a6  bv_2) (bvand bv_0 bv_0))))
(assert (bvsge (bvlshr (bvsdiv bv_0 bv_3) (bvsdiv #x4cc887fb  bv_3)) (bvadd (bvsrem bv_0 #x6d467e82 ) (bvsub #x01881ec7  #x0bd3341b ))))
(assert (bvugt (bvmul (bvor #xae1464a2  bv_2) (bvsrem #xbb31a3e1  #xfe892216 )) (bvsmod (bvsrem bv_2 bv_2) (bvurem #xd4daafef  bv_4))))
(assert (or (bvslt (bvshl bv_4 bv_0) (bvshl #xcd146783  #x4e4ab940 )) (not (bvsge #xb8eccadf  #xede59c4b ))))
(check-sat)
(exit)
